s td 67 71 178
b 1 11 51 67 68 74 78 143
b 2 11 67 68 72 74 78 143
b 3 2 11 25 67 68 72 73 121
b 4 2 16 25 67 68 72 73 121
b 5 2 16 25 39 41 42 73 121
b 6 2 25 39 41 42 73 121 177
b 7 2 39 41 42 44 177
b 8 17 39 41 42 44 158 177
b 9 17 39 42 44 158 168 177
b 10 3 17 39 44 158 168
b 11 1 3 4 5 6 8 14 18 20 21 27 29 30 31 36 43 48 50 55 61 65 69 76 80 81 83 86 87 91 92 93 95 96 97 99 100 101 102 105 109 111 112 122 124 125 128 129 131 132 133 135 136 137 139 140 142 146 153 154 162 163 165 166 169 170 171 178
b 12 1 4 5 6 7 8 18 20 21 27 29 30 31 36 43 48 50 55 59 61 62 65 69 76 80 81 83 84 86 89 91 92 95 96 97 99 100 101 102 105 109 111 112 113 120 122 124 125 126 128 129 131 132 133 135 136 137 139 142 146 150 153 154 162 163 165 166 169 170 171 178
b 13 1 4 6 7 13 18 20 27 30 34 43 48 50 55 59 62 81 83 84 86 89 91 95 96 97 100 101 105 111 112 113 120 124 126 128 136 139 141 146 150 153 162 165 166 171
b 14 1 4 6 7 9 13 18 30 34 43 48 55 62 81 83 84 86 91 95 96 101 105 120 124 126 128 136 139 141 146 153 162 165 166
b 15 1 4 6 7 9 13 18 30 34 43 48 55 62 81 83 84 86 91 95 96 101 105 120 124 126 128 136 139 141 146 151 162 165 166
b 16 1 4 6 7 9 13 18 30 34 43 48 55 62 81 83 84 86 91 95 96 101 105 120 124 126 128 136 139 141 144 146 151 165 166
b 17 1 4 6 7 9 13 18 30 34 43 48 52 55 81 83 84 86 91 96 101 105 120 124 126 128 136 139 141 144 146 151 165 166
b 18 1 4 5 7 8 18 20 21 27 29 30 31 36 48 50 55 59 61 62 65 69 76 80 81 83 84 86 89 92 95 96 97 99 100 101 102 105 109 111 112 113 120 122 124 125 126 128 129 131 132 133 135 136 137 138 139 142 150 153 154 162 163 165 166 169 170 171 178
b 19 1 4 5 7 8 18 20 21 27 29 30 31 36 48 50 55 59 61 62 65 69 76 80 81 83 84 86 89 92 95 96 97 99 100 101 102 109 111 112 113 118 120 122 124 125 126 128 129 131 132 133 135 136 137 138 139 142 150 153 154 162 163 165 166 169 170 171 173 178
b 20 1 4 5 7 8 18 20 21 27 28 29 30 31 36 48 50 55 59 61 62 65 69 76 80 81 83 84 86 89 92 95 96 97 99 100 101 102 109 111 112 113 118 120 122 125 126 128 129 131 132 133 135 136 137 138 139 142 150 153 154 162 163 165 166 169 170 171 173 178
b 21 1 4 5 7 8 18 20 21 27 28 29 31 36 48 50 55 56 59 61 62 65 69 76 77 80 81 83 84 86 89 92 95 96 97 99 100 101 102 109 111 112 113 118 120 122 125 126 128 129 131 132 133 135 136 137 138 139 142 150 153 154 162 163 166 169 170 171 173 178
b 22 1 4 5 7 8 20 21 27 28 29 31 36 45 48 50 55 56 59 61 62 65 69 76 77 80 81 83 84 86 89 92 95 96 97 99 100 101 102 109 111 112 113 118 120 122 125 126 128 129 131 132 133 135 137 138 139 142 145 150 153 154 162 163 166 169 170 171 173 174 178
b 23 1 4 5 7 8 20 21 27 28 29 31 36 45 48 50 55 56 59 61 65 69 76 77 80 81 83 84 86 89 92 95 96 97 99 100 101 102 109 111 112 113 118 120 122 125 126 128 129 131 132 133 135 137 138 139 142 145 150 153 154 162 163 166 169 170 171 172 173 174 178
b 24 1 4 5 7 8 20 21 27 28 29 31 36 45 48 50 55 56 59 61 65 69 76 77 80 81 83 84 86 89 92 95 96 97 99 100 101 102 109 111 112 113 118 122 125 126 128 129 131 132 133 135 137 138 139 142 145 150 153 154 156 162 163 166 169 170 171 172 173 174 178
b 25 1 4 5 7 8 20 21 27 28 29 31 36 45 48 50 55 56 57 59 61 65 69 76 77 80 81 83 86 89 92 95 96 97 99 100 101 102 109 111 112 113 118 122 125 126 128 129 131 132 133 135 137 138 139 142 145 150 153 154 156 157 162 163 166 169 170 171 172 173 174 178
b 26 1 4 5 7 8 20 21 27 28 29 31 36 45 48 50 55 56 57 59 61 64 65 69 76 77 80 83 86 89 92 95 96 97 99 100 101 102 109 111 112 113 118 122 125 126 128 129 131 132 135 137 138 139 142 145 150 153 154 156 157 162 163 166 169 170 171 172 173 174 178
b 27 1 4 5 7 8 20 21 27 28 29 31 36 45 48 50 55 56 57 59 61 64 65 69 76 77 80 83 86 89 92 95 96 97 99 100 101 102 109 111 112 113 116 118 122 125 126 128 129 132 135 137 138 139 142 145 150 153 154 156 157 162 163 169 170 171 172 173 174 178
b 28 1 4 5 7 8 20 21 27 28 29 31 36 45 50 55 56 57 59 61 64 65 69 76 77 80 83 89 92 94 95 96 97 99 100 102 109 111 112 113 116 118 122 123 125 126 128 129 132 134 135 137 138 139 142 145 150 153 154 156 157 159 162 163 164 169 170 171 172 173 174 178
b 29 1 4 7 8 20 21 27 28 29 31 36 38 45 50 55 56 57 59 61 64 65 76 77 80 83 89 92 94 95 96 97 99 100 102 109 111 112 113 116 118 122 123 125 126 128 132 134 135 137 138 139 142 145 150 153 156 157 159 162 163 164 169 170 171 172 173 174 178
b 30 1 4 7 8 20 21 27 28 29 31 33 36 38 45 50 55 56 57 59 61 64 65 76 77 80 83 89 92 94 95 96 97 99 100 102 104 106 109 111 112 113 116 118 122 123 125 126 128 130 132 134 135 137 138 142 145 150 153 156 157 159 162 163 164 169 170 171 172 173 174 178
b 31 4 7 8 20 21 27 29 31 33 36 38 45 50 55 56 57 59 61 63 64 65 76 77 80 83 89 92 94 95 96 97 99 100 102 104 106 109 111 112 113 116 122 123 125 126 128 130 132 134 135 137 138 142 145 150 153 156 157 159 162 163 164 169 170 171 172 173 174 178
b 32 7 8 20 21 27 29 31 33 36 38 45 50 55 56 57 59 61 63 64 65 71 76 77 80 83 89 92 94 95 96 97 99 100 102 104 106 109 111 112 113 116 122 123 125 126 128 130 132 134 135 137 138 142 145 150 153 156 157 159 162 163 164 169 170 171 172 173 174 178
b 33 7 8 20 21 27 29 31 33 36 38 45 50 55 56 57 59 63 64 71 76 77 80 83 89 92 94 95 96 97 99 100 102 104 106 109 111 112 113 115 116 119 122 123 125 126 128 130 132 134 135 137 138 142 145 150 153 156 157 159 162 163 164 169 170 171 172 173 174 178
b 34 7 8 20 21 27 29 31 33 36 38 45 50 55 56 57 59 63 64 71 76 77 80 83 89 90 92 94 95 96 97 99 100 102 104 106 109 111 112 113 115 116 119 122 123 125 126 128 130 132 134 135 137 142 145 149 150 153 156 157 159 162 163 164 169 170 171 172 174 178
b 35 7 8 20 21 27 29 31 33 36 45 50 55 56 57 59 63 64 71 76 77 80 83 89 90 92 94 95 96 97 99 100 102 104 106 109 111 112 113 115 116 119 122 123 125 126 128 130 132 134 135 137 142 145 149 150 153 156 157 159 161 162 163 164 169 170 171 172 174 178
b 36 7 8 20 21 27 29 31 33 36 40 45 50 55 56 57 59 63 64 71 77 80 83 88 89 90 92 94 95 96 97 99 100 102 104 106 109 111 112 113 116 122 123 125 126 128 130 132 134 135 137 142 145 149 150 153 156 157 159 161 162 163 164 169 170 171 172 174 178
b 37 7 8 20 21 27 29 31 33 36 40 45 50 55 56 57 59 60 63 64 71 77 80 83 88 89 90 92 94 95 96 97 99 100 102 104 106 109 111 112 113 116 122 123 125 126 128 130 132 134 135 137 142 145 149 150 153 156 157 159 162 163 164 169 170 171 172 174 178
b 38 7 8 20 21 27 29 31 33 40 45 50 53 55 56 57 59 60 63 64 71 77 80 83 88 89 92 94 95 96 97 99 100 102 104 106 109 111 112 113 116 122 123 125 126 128 130 132 134 135 137 142 145 149 150 153 156 157 159 162 163 164 169 170 171 172 174 178
b 39 7 8 20 21 22 27 29 31 33 40 45 50 53 55 56 57 59 60 63 64 71 77 80 83 88 89 92 94 95 96 97 99 100 102 104 106 109 111 112 113 116 122 123 125 126 128 130 132 134 135 137 142 145 149 150 153 156 157 159 162 163 164 169 171 172 174 178
b 40 7 8 20 21 22 27 29 31 33 40 45 50 53 55 57 59 60 63 64 71 80 83 88 89 92 94 95 96 97 99 100 102 103 104 106 108 109 111 112 113 116 122 123 125 126 128 130 132 134 135 142 145 149 150 153 156 157 159 162 163 164 169 171 172 174 178
b 41 7 8 12 20 21 22 27 29 31 33 40 45 50 53 55 57 59 60 63 64 71 80 83 89 92 94 95 96 97 99 100 102 103 104 106 108 109 111 112 113 116 122 123 125 126 128 130 132 134 135 142 145 149 150 153 156 157 159 162 163 164 169 171 172 174 178
b 42 7 8 12 20 21 22 27 29 31 33 45 47 50 53 54 55 57 59 63 64 71 80 82 83 89 92 94 95 96 99 100 102 103 104 106 108 109 112 113 116 122 123 125 126 128 130 132 134 135 142 145 149 150 153 156 157 159 162 163 164 169 171 172 174 178
b 43 7 8 12 15 20 21 22 27 29 31 33 45 47 50 53 54 55 57 59 63 64 71 80 82 83 89 92 94 95 96 99 100 102 103 104 106 108 109 112 113 116 122 123 126 128 130 132 134 135 142 145 149 150 153 156 157 159 162 163 164 169 171 172 174 178
b 44 7 8 12 15 20 21 22 27 29 31 33 45 46 47 50 53 54 57 59 63 64 71 80 82 83 89 92 94 99 100 102 103 104 106 108 109 112 113 116 122 123 126 130 132 134 135 142 145 149 150 153 156 157 159 162 163 164 169 171 172 174 178
b 45 7 8 12 15 20 21 22 23 27 29 31 33 45 46 47 50 53 54 57 59 63 64 71 80 82 83 89 92 94 99 100 102 103 104 106 108 109 112 113 116 122 123 126 130 132 134 135 145 149 150 153 156 157 159 163 164 169 171 172 174 178
b 46 7 8 12 15 20 21 22 23 27 29 31 32 33 45 46 47 50 53 54 57 59 63 64 71 80 82 89 92 94 99 100 102 103 104 106 108 109 112 113 116 122 123 126 130 132 134 135 145 149 150 153 156 157 159 163 164 169 171 172 174 178
b 47 7 8 12 15 20 21 22 23 26 27 29 31 32 33 45 46 47 50 53 54 57 59 63 64 71 80 82 89 92 94 99 100 103 104 106 108 109 110 112 113 116 123 126 130 134 145 149 150 153 156 157 159 163 164 171 172 174 178
b 48 7 8 12 15 20 21 22 23 26 27 29 31 32 33 45 46 47 50 53 54 57 59 63 64 70 71 80 82 89 92 94 99 100 103 104 106 108 109 110 112 113 116 123 126 130 134 145 149 150 156 157 159 164 171 172 174 178
b 49 7 8 12 15 20 22 23 26 27 29 31 32 33 45 46 47 53 54 57 59 63 64 70 71 80 82 89 92 94 99 100 103 104 106 108 110 112 113 116 117 123 126 130 134 145 149 150 156 157 159 164 171 172 174 178
b 50 8 12 15 20 22 23 26 27 31 32 33 45 46 47 53 54 57 59 63 64 70 71 80 82 94 99 100 103 104 106 108 110 112 116 117 123 127 130 134 145 150 156 157 159 160 164 171 172 174
b 51 8 15 20 22 23 26 27 31 32 33 45 46 53 54 57 59 63 64 70 71 80 82 94 99 100 103 104 106 108 110 112 116 117 123 127 130 134 145 150 155 156 157 159 160 164 171 172 174
b 52 20 27 33 36 38 45 56 75 76 77 90 94 99 100 104 106 112 115 119 123 134 137 145 149 156 159 164 170 171 172 174
b 53 20 27 33 38 45 58 75 76 94 99 100 104 106 112 114 115 119 123 134 145 149 156 159 164 171 172 174
b 54 33 38 45 58 75 76 94 98 99 104 106 107 114 115 119 123 134 145 149 152 156 159 164 172 174
b 55 19 33 38 45 58 75 76 94 98 99 104 106 107 114 115 123 134 145 149 152 156 159 164 172 174
b 56 1 4 21 31 33 38 45 49 55 80 83 92 94 95 99 104 106 118 123 128 130 134 138 145 153 156 159 162 164 171 172 173 174 178
b 57 1 3 4 5 6 8 10 14 18 20 21 27 29 30 31 36 43 48 50 55 61 65 69 76 81 83 86 87 91 92 93 95 96 97 99 100 101 102 105 109 111 112 122 124 125 128 129 131 132 133 135 136 137 139 140 142 146 153 154 162 163 165 166 169 170 171 178
b 58 1 3 4 5 6 8 10 14 18 20 21 27 29 30 31 36 43 48 50 55 61 65 69 81 83 86 87 91 92 93 95 96 97 99 100 101 102 105 109 111 112 122 124 125 128 129 131 132 133 135 136 137 139 140 142 146 147 148 153 154 162 163 165 166 169 170 171 178
b 59 1 3 4 5 6 8 10 14 18 20 21 27 29 30 31 36 37 43 48 50 55 65 69 81 83 86 87 91 92 93 95 96 97 99 100 101 102 105 109 111 112 122 124 125 128 129 131 132 133 135 136 137 139 140 142 146 147 148 153 154 162 163 165 166 169 170 171 178
b 60 1 3 4 5 6 8 10 14 18 20 21 27 29 30 36 37 43 48 50 55 65 69 81 83 86 87 91 92 93 95 96 97 99 100 101 102 105 109 111 112 122 124 125 128 129 131 132 133 135 136 137 139 140 142 146 147 148 153 154 162 163 165 166 169 170 171 175 178
b 61 1 3 4 5 6 8 10 14 18 20 21 27 29 30 35 36 37 43 48 50 55 65 69 81 83 86 87 91 92 93 95 96 97 99 100 101 102 105 109 111 112 122 124 125 128 129 131 132 133 135 136 137 139 140 146 147 148 153 154 162 163 165 166 169 170 171 175 178
b 62 1 3 4 5 6 10 14 18 20 27 30 35 36 37 43 48 50 65 66 69 81 86 87 91 93 96 97 99 100 101 105 111 112 124 129 131 133 136 137 139 140 146 147 148 154 165 166 170 171 175 176
b 63 1 3 4 5 6 14 18 20 27 30 35 36 37 43 48 50 65 66 69 81 85 86 87 91 93 96 97 99 100 101 105 111 112 124 129 131 133 136 137 139 140 146 147 148 154 165 166 170 171 175 176
b 64 1 3 4 5 6 14 18 20 27 30 35 37 43 48 50 65 66 69 79 81 85 86 87 91 93 96 97 100 101 105 111 112 124 129 131 133 136 139 140 146 147 148 154 165 166 167 171 175 176
b 65 1 3 4 5 6 14 18 20 24 27 30 35 37 43 48 50 65 66 69 79 81 85 86 87 91 93 96 97 100 101 105 111 112 124 129 131 133 136 139 140 146 148 154 165 166 167 171 175 176
b 66 3 5 6 14 20 27 30 43 44 69 80 87 91 93 96 100 105 112 124 129 140 146 154 158 165 168 171
b 67 3 5 6 14 17 20 27 30 43 44 69 80 91 93 100 105 112 124 129 140 146 154 158 165 168 171
1 2
2 3
3 4
4 5
5 6
6 7
7 8
8 9
9 10
10 67
11 12
11 57
11 66
12 13
12 18
13 14
14 15
15 16
16 17
18 19
19 20
20 21
21 22
22 23
23 24
24 25
25 26
26 27
27 28
28 29
29 30
30 31
30 56
31 32
32 33
33 34
34 35
34 52
35 36
36 37
37 38
38 39
39 40
40 41
41 42
42 43
43 44
44 45
45 46
46 47
47 48
48 49
49 50
50 51
52 53
53 54
54 55
57 58
58 59
59 60
60 61
61 62
62 63
63 64
64 65
66 67
